12
benzene HF/STO-3G optimized
C      -0.000000      1.386787     -0.000000
C       1.201027      0.693406      0.000000
C       1.201027     -0.693406     -0.000000
C       0.000000     -1.386787     -0.000000
C      -1.201027     -0.693406     -0.000000
C      -1.201027      0.693406      0.000000
H      -0.000000      2.469394     -0.000000
H       2.138581      1.234727      0.000000
H       2.138581     -1.234727     -0.000000
H       0.000000     -2.469394     -0.000000
H      -2.138581     -1.234727     -0.000000
H      -2.138581      1.234727      0.000000
