13
phenol HF/STO-3G optimized
C      -0.001031      1.388125     -0.000000
C       1.203719      0.690334      0.000000
C       1.197965     -0.695897      0.000000
C       0.002685     -1.393949      0.000000
C      -1.198792     -0.695805     -0.000000
C      -1.208423      0.685651     -0.000000
O      -0.071144      2.781507     -0.000000
H       0.868138      3.090522      0.000000
H       2.139064      1.234450      0.000000
H       2.139302     -1.231858      0.000000
H       0.003374     -2.475298      0.000000
H      -2.137285     -1.236760     -0.000000
H      -2.137572      1.238976     -0.000000
