24
Salicylic acid + Acetic acid products (both optimized)
C   0.0175   1.3785   0.0000
C   1.2167   0.6490   0.0000
C   1.1879  -0.7474   0.0000
C  -0.0122  -1.4207   0.0000
C  -1.2070  -0.6951   0.0000
C  -1.2018   0.6809   0.0000
O  -0.0099   2.7545   0.0000
H   0.9496   3.0225   0.0000
C   2.5024   1.4209   0.0000
O   2.5650   2.6511   0.0000
O   3.6464   0.6446   0.0000
H   4.3911   1.2968   0.0000
H   2.1266  -1.2891   0.0000
H  -0.0340  -2.5013   0.0000
H  -2.1528  -1.2250   0.0000
H  -2.1234   1.2458   0.0000
C   6.0000   0.0131  -0.0000
C   7.4846   0.0938  -0.0000
O   8.1613   1.1045   0.0000
O   8.0595  -1.1738  -0.0000
H   9.0350  -1.0049   0.0000
H   5.5302   1.0136  -0.0000
H   5.6098  -0.5231   0.8816
H   5.6098  -0.5231  -0.8816
