24
Aspirin + Water reactants
C       0.185669      1.351470     -0.000000
C       1.398583      0.608930     -0.000000
C       1.143214     -0.847444     -0.000000
C      -0.070168     -1.410877     -0.000000
C      -1.267900     -0.596071     -0.000000
C      -1.105518      0.738247     -0.000000
O       0.181610      2.715516     -0.000000
C       1.133361      3.596505     -0.000000
O       2.509251      3.535620     -0.000000
C       0.681419      5.058551     -0.000000
H       0.080196      5.272473      0.882575
H       1.554111      5.703814     -0.000000
H       0.080196      5.272473     -0.882575
C       2.664869      1.061436     -0.000000
O       3.252630      2.384817     -0.000000
O       3.764478      0.168366     -0.000000
H       4.555112      0.772240     -0.000000
H       2.028838     -1.466346      0.000000
H      -0.173075     -2.490046      0.000000
H      -2.242939     -1.059339     -0.000000
H      -1.959945      1.404652     -0.000000
O       6.000000      0.020272      0.020272
H       6.000000     -0.066178      1.005905
H       6.000000      1.005905     -0.066178
