16
salicylic_acid HF/STO-3G optimized
C       0.017507      1.378479      0.000000
C       1.216711      0.648985      0.000000
C       1.187903     -0.747384      0.000000
C      -0.012189     -1.420690      0.000000
C      -1.206987     -0.695119     -0.000000
C      -1.201846      0.680882     -0.000000
O      -0.009899      2.754476      0.000000
H       0.949611      3.022495      0.000000
C       2.502352      1.420911     -0.000000
O       2.564979      2.651056     -0.000000
O       3.646397      0.644630     -0.000000
H       4.391102      1.296787     -0.000000
H       2.126633     -1.289120      0.000000
H      -0.033995     -2.501268      0.000000
H      -2.152845     -1.224969     -0.000000
H      -2.123439      1.245845     -0.000000
